language ESSENCE' 1.0
$ loaded file: carseqdata/csplib-instance-38
letting numcars=200
letting numclasses=22
letting numoptions=5
letting optMax=[1, 2, 1, 2, 1]
letting windowSize=[2, 3, 3, 5, 5]
letting numberPerClass=[11, 40, 3, 2, 22, 27, 4, 3, 14, 3, 5, 1, 1, 30, 2, 9, 1, 8, 4, 5, 3, 2]
letting optionsRequired=[[0, 1, 1, 0, 0], [0, 0, 0, 1, 0], [0, 1, 0, 1, 1], [1, 1, 1, 0, 0], [0, 0, 1, 0, 0], [1, 0, 0, 0, 0], [1, 0, 0, 0, 1], [1, 1, 0, 0, 1], [1, 1, 0, 0, 0], [0, 0, 1, 1, 0], [1, 0, 1, 0, 0], [1, 0, 1, 0, 1], [0, 1, 1, 1, 1], [0, 1, 0, 0, 0], [0, 0, 1, 0, 1], [0, 1, 0, 1, 0], [1, 1, 0, 1, 1], [0, 0, 0, 0, 1], [0, 1, 1, 1, 0], [1, 1, 0, 1, 0], [1, 0, 0, 1, 0], [0, 0, 0, 1, 1]]
